  12   5
  16
   0   0   1   1
  75   1
 1.00000E-11 1.33880E-06 1.79230E-06 2.39940E-06 3.21220E-06 4.30040E-06
 5.75710E-06 7.70740E-06 1.03180E-05 1.38140E-05 1.84930E-05 2.47580E-05
 3.31450E-05 4.43720E-05 5.94040E-05 7.95270E-05 1.06470E-04 1.42530E-04
 1.90820E-04 2.55460E-04 3.42000E-04 4.57850E-04 6.12950E-04 8.20580E-04
 1.09860E-03 1.47070E-03 1.96890E-03 2.63590E-03 3.52880E-03 4.72420E-03
 6.32460E-03 8.46700E-03 1.13350E-02 1.51750E-02 2.03160E-02 2.71980E-02
 3.64110E-02 4.87460E-02 6.52590E-02 8.73650E-02 1.16960E-01 1.56580E-01
 2.09620E-01 2.80640E-01 3.75700E-01 5.02970E-01 6.73360E-01 9.01460E-01
 1.20680E+00 1.61570E+00 2.16300E+00 2.89570E+00 3.87660E+00 5.18980E+00
 6.94790E+00 9.30150E+00 1.24520E+01 1.66710E+01 2.23180E+01 2.98790E+01
 4.00000E+01 4.10000E+01 4.20000E+01 4.30000E+01 4.40000E+01 4.50000E+01
 4.60000E+01 4.70000E+01 4.80000E+01 4.90000E+01 5.00000E+01 5.10000E+01
 5.20000E+01 5.30000E+01 5.40000E+01 5.50000E+01
 0.00000E+00 0.00000E+00 0.00000E+00 0.00000E+00 0.00000E+00 0.00000E+00
 0.00000E+00 0.00000E+00 0.00000E+00 0.00000E+00 0.00000E+00 0.00000E+00
 0.00000E+00 0.00000E+00 0.00000E+00 0.00000E+00 0.00000E+00 0.00000E+00
 0.00000E+00 0.00000E+00 0.00000E+00 1.96020E-03 0.00000E+00 4.53170E-03
 0.00000E+00 1.60810E-03 2.93780E-03 3.19230E-03 3.74060E-03 1.32740E-03
 3.26820E-03 1.43170E-03 2.43690E-03 8.54450E-04 1.91320E-03 1.77310E-03
 1.03990E-03 1.65690E-03 1.56420E-03 1.98020E-03 1.81130E-03 1.83170E-03
 1.77380E-03 2.07860E-03 1.91840E-03 2.00140E-03 1.92240E-03 2.09820E-03
 1.67650E-03 1.47850E-03 1.18170E-03 8.00540E-04 5.43090E-04 3.41140E-04
 2.34450E-04 1.38130E-04 1.07190E-04 6.34120E-05 3.84390E-05 1.33610E-05
 0.00000E+00 0.00000E+00 0.00000E+00 0.00000E+00 0.00000E+00 0.00000E+00
 0.00000E+00 0.00000E+00 0.00000E+00 0.00000E+00 0.00000E+00 0.00000E+00
 0.00000E+00 0.00000E+00 0.00000E+00
   0
   0
