  12   5
  16
   0   0   1   1
 226   1
 1.00000E-11 1.10000E-06 1.20000E-06 1.30000E-06 1.40000E-06 1.50000E-06
 1.60000E-06 1.70000E-06 1.80000E-06 2.00000E-06 2.25000E-06 2.49999E-06
 2.74999E-06 2.99999E-06 3.24999E-06 3.49999E-06 3.74999E-06 3.99999E-06
 4.49999E-06 4.99999E-06 5.49999E-06 5.99999E-06 6.49999E-06 6.99999E-06
 7.99999E-06 8.99999E-06 9.99999E-06 1.09999E-05 1.19999E-05 1.29999E-05
 1.39999E-05 1.49999E-05 1.59999E-05 1.69999E-05 1.79999E-05 1.99999E-05
 2.24999E-05 2.49999E-05 2.74999E-05 2.99999E-05 3.24999E-05 3.49999E-05
 3.74999E-05 3.99999E-05 4.49999E-05 4.99999E-05 5.49999E-05 5.99999E-05
 6.49999E-05 6.99999E-05 7.99999E-05 8.99999E-05 9.99999E-05 1.10000E-04
 1.20000E-04 1.30000E-04 1.39999E-04 1.49999E-04 1.59999E-04 1.69999E-04
 1.79999E-04 1.99999E-04 2.24999E-04 2.49999E-04 2.74999E-04 2.99999E-04
 3.24999E-04 3.49999E-04 3.74999E-04 3.99999E-04 4.49999E-04 4.99999E-04
 5.49999E-04 5.99999E-04 6.49999E-04 6.99999E-04 7.99999E-04 8.99999E-04
 9.99999E-04 1.10000E-03 1.20000E-03 1.30000E-03 1.40000E-03 1.50000E-03
 1.60000E-03 1.70000E-03 1.80000E-03 2.00000E-03 2.25000E-03 2.50000E-03
 2.75000E-03 3.00000E-03 3.25000E-03 3.50000E-03 3.75000E-03 4.00000E-03
 4.50000E-03 5.00000E-03 5.50000E-03 6.00000E-03 6.50000E-03 7.00000E-03
 8.00000E-03 9.00000E-03 1.00000E-02 1.10000E-02 1.20000E-02 1.30000E-02
 1.40000E-02 1.50000E-02 1.60000E-02 1.70000E-02 1.80000E-02 2.00000E-02
 2.25000E-02 2.50000E-02 2.75000E-02 3.00000E-02 3.25000E-02 3.50000E-02
 3.75000E-02 4.00000E-02 4.50000E-02 5.00000E-02 5.50000E-02 6.00000E-02
 6.50000E-02 7.00000E-02 8.00000E-02 9.00000E-02 1.00000E-01 1.10000E-01
 1.20000E-01 1.30000E-01 1.40000E-01 1.50000E-01 1.60000E-01 1.70000E-01
 1.80000E-01 2.00000E-01 2.25000E-01 2.50000E-01 2.75000E-01 3.00000E-01
 3.25000E-01 3.50000E-01 3.75000E-01 4.00000E-01 4.50000E-01 5.00000E-01
 5.50000E-01 6.00000E-01 6.50000E-01 7.00000E-01 8.00000E-01 9.00000E-01
 1.00000E+00 1.10000E+00 1.20000E+00 1.30000E+00 1.40000E+00 1.50000E+00
 1.60000E+00 1.70000E+00 1.80000E+00 2.00000E+00 2.25000E+00 2.50000E+00
 2.75000E+00 3.00000E+00 3.25000E+00 3.50000E+00 3.75000E+00 4.00000E+00
 4.50000E+00 5.00000E+00 5.50000E+00 6.00000E+00 6.50000E+00 7.00000E+00
 8.00000E+00 9.00000E+00 1.00000E+01 1.10000E+01 1.20000E+01 1.30000E+01
 1.40000E+01 1.50000E+01 1.60000E+01 1.70000E+01 1.80000E+01 2.00000E+01
 2.10000E+01 2.20000E+01 2.30000E+01 2.40000E+01 2.50000E+01 2.60000E+01
 2.70000E+01 2.80000E+01 2.90000E+01 3.00000E+01 3.10000E+01 3.20000E+01
 3.30000E+01 3.40000E+01 3.50000E+01 3.60000E+01 3.70000E+01 3.80000E+01
 3.90000E+01 4.00000E+01 4.10000E+01 4.20000E+01 4.30000E+01 4.40000E+01
 4.50000E+01 4.60000E+01 4.70000E+01 4.80000E+01 4.90000E+01 5.00000E+01
 5.10000E+01 5.20000E+01 5.30000E+01 5.40000E+01 5.50000E+01
 3.90320E-04 3.85505E-04 3.73274E-04 3.59389E-04 3.47041E-04 3.35965E-04
 3.25998E-04 3.16907E-04 3.04692E-04 2.88934E-04 2.74198E-04 2.61677E-04
 2.50847E-04 2.41400E-04 2.33100E-04 2.25657E-04 2.18962E-04 2.10194E-04
 2.00080E-04 1.91461E-04 1.84010E-04 1.77510E-04 1.71777E-04 1.64352E-04
 1.55933E-04 1.48909E-04 1.42918E-04 1.37732E-04 1.33191E-04 1.29166E-04
 1.25565E-04 1.22317E-04 1.19360E-04 1.16659E-04 1.13052E-04 1.08336E-04
 1.03869E-04 1.00050E-04 9.67305E-05 9.38042E-05 9.12034E-05 8.88691E-05
 8.67528E-05 8.39560E-05 8.06972E-05 7.78938E-05 7.54489E-05 7.32896E-05
 7.13598E-05 6.88444E-05 6.59522E-05 6.35001E-05 6.13892E-05 5.95238E-05
 5.78670E-05 5.63873E-05 5.50464E-05 5.38286E-05 5.27176E-05 5.16876E-05
 5.02841E-05 4.84308E-05 4.66505E-05 4.51040E-05 4.37244E-05 4.24881E-05
 4.13830E-05 4.03771E-05 3.94524E-05 3.82080E-05 3.67323E-05 3.54390E-05
 3.42888E-05 3.32568E-05 3.23274E-05 3.10907E-05 2.96463E-05 2.83990E-05
 2.73060E-05 2.63373E-05 2.54702E-05 2.46862E-05 2.39722E-05 2.33187E-05
 2.27172E-05 2.21597E-05 2.14027E-05 2.04369E-05 1.95381E-05 1.87570E-05
 1.80659E-05 1.74499E-05 1.68953E-05 1.63921E-05 1.59347E-05 1.53218E-05
 1.46053E-05 1.39868E-05 1.34454E-05 1.29673E-05 1.25408E-05 1.19857E-05
 1.13535E-05 1.08236E-05 1.03724E-05 9.98298E-06 9.64255E-06 9.34610E-06
 9.08327E-06 8.84610E-06 8.63180E-06 8.44158E-06 8.19272E-06 7.87138E-06
 7.57978E-06 7.33797E-06 7.13610E-06 6.96651E-06 6.82081E-06 6.69432E-06
 6.58311E-06 6.44662E-06 6.29799E-06 6.18244E-06 6.09493E-06 6.03147E-06
 5.98707E-06 5.95944E-06 5.96224E-06 6.00605E-06 6.08350E-06 6.18763E-06
 6.31119E-06 6.45009E-06 6.59953E-06 6.75600E-06 6.92002E-06 7.08965E-06
 7.34533E-06 7.73524E-06 8.17548E-06 8.61642E-06 9.04981E-06 9.47483E-06
 9.89737E-06 1.03149E-05 1.07242E-05 1.13126E-05 1.20941E-05 1.28535E-05
 1.35925E-05 1.43120E-05 1.50143E-05 1.60131E-05 1.73372E-05 1.86147E-05
 1.98166E-05 2.10149E-05 2.22800E-05 2.35342E-05 2.47618E-05 2.59718E-05
 2.71650E-05 2.83439E-05 3.00485E-05 3.25863E-05 3.53781E-05 3.81174E-05
 4.08104E-05 4.34639E-05 4.60792E-05 4.86593E-05 5.12153E-05 5.49010E-05
 5.98491E-05 6.47126E-05 6.95298E-05 7.42567E-05 7.89182E-05 8.56473E-05
 9.46954E-05 1.03545E-04 1.12249E-04 1.20818E-04 1.29255E-04 1.37582E-04
 1.45800E-04 1.53917E-04 1.61948E-04 1.69889E-04 1.81373E-04 1.00000E-38
 1.00000E-38 1.00000E-38 1.00000E-38 1.00000E-38 1.00000E-38 1.00000E-38
 1.00000E-38 1.00000E-38 1.00000E-38 1.00000E-38 1.00000E-38 1.00000E-38
 1.00000E-38 1.00000E-38 1.00000E-38 1.00000E-38 1.00000E-38 1.00000E-38
 1.00000E-38 1.00000E-38 1.00000E-38 1.00000E-38 1.00000E-38 1.00000E-38
 1.00000E-38 1.00000E-38 1.00000E-38 1.00000E-38 1.00000E-38 1.00000E-38
 1.00000E-38 1.00000E-38 1.00000E-38 1.00000E-38
   0
   0
