  12  12
  16
   0   0   1  1
-211   0
 1.48840E+08 1.23330E+10 1.25670E+10 4.91630E+10 5.01370E+10 8.84000E+10
 1.31000E+11 1.61000E+11 2.06000E+11 2.41000E+11 2.94000E+11 3.18000E+11
 3.78000E+11 4.10000E+11 4.74000E+11 5.16000E+11 5.77000E+11 6.12000E+11
 6.82000E+11 7.51000E+11 8.52000E+11 9.77000E+11 1.11000E+12 1.25000E+12
 1.44000E+12 1.67000E+12 1.90000E+12 2.23000E+12 2.58000E+12 2.91000E+12
 3.30000E+12 3.70000E+12 4.19000E+12 4.72000E+12 5.31000E+12 2.12000E+12
 1.57000E+13 3.40000E+12 3.30000E+12 6.91000E+12 6.97000E+12 3.54000E+12
 3.59000E+12 3.62000E+12 3.66000E+12 7.29000E+12 3.75000E+12 3.73000E+12
 7.45000E+12 7.60000E+12 7.63000E+12 7.59000E+12 7.61000E+12 7.49000E+12
 7.23000E+12 6.79000E+12 6.44000E+12 6.23000E+12 6.05000E+12 5.94000E+12
 2.00000E+12 3.93000E+12 5.99000E+12 6.00000E+12 6.09000E+12 6.19000E+12
 6.30000E+12 6.25000E+12 6.44000E+12 1.33000E+13 1.42000E+13 1.50000E+13
 7.87000E+12 8.11000E+12 8.60000E+12 8.90000E+12 9.35000E+12 9.22000E+12
 6.47000E+12 1.68000E+12 1.69000E+12 3.15000E+12 6.54000E+12 9.71000E+12
 9.51000E+12 9.43000E+12 9.51000E+12 1.03000E+13 1.05000E+13 1.01000E+13
 9.94000E+12 9.73000E+12 9.96000E+12 1.03000E+13 9.55000E+12 1.13000E+13
 1.04000E+13 1.86000E+13 7.47000E+12 1.09000E+13 8.07000E+12 8.18000E+12
 7.72000E+12 7.60000E+12 8.47000E+12 8.58000E+12 8.79000E+12 8.31000E+12
 6.79000E+12 5.39000E+12 5.23000E+12 4.91000E+12 9.64000E+12 7.62000E+12
 3.62000E+12 4.82000E+12 7.98000E+12 6.01000E+12 7.43000E+11 2.66000E+11
 5.06000E+11 9.90000E+11 1.67000E+12 3.84000E+12 1.88000E+12 1.62000E+12
 1.98000E+12 1.74000E+12 1.36000E+12 1.74000E+12 2.35000E+12 1.59000E+12
 1.66000E+12 1.18000E+12 8.28000E+11 1.51000E+12 1.40000E+12 1.35000E+12
 9.79000E+11 8.94000E+11 1.72000E+12 1.58000E+12 4.21000E+11 8.93000E+11
 1.05000E+12 8.63000E+11 1.43000E+12 4.57000E+11 8.20000E+11 7.55000E+11
 8.26000E+11 2.66000E+11 2.30000E+11 5.53000E+10 2.10000E+11 5.53000E+11
 2.04000E+11 1.22000E+11 2.05000E+11 2.49000E+11 4.35000E+11 3.86000E+11
 1.47000E+11 1.96000E+11 2.16000E+11 3.45000E+11 3.17000E+11 1.41000E+11
 1.00000E+11 9.33000E+10 7.79000E+10 3.47000E+10 3.30000E+10 5.90000E+10
 5.19000E+10 1.03000E+11 7.61000E+10 4.73000E+10 4.37000E+10 3.61000E+10
 3.31000E+10 2.52000E+10 2.21000E+10 2.02000E+10 1.70000E+10 1.42000E+10
 1.21000E+10 1.23000E+10 1.13000E+10 9.61000E+09 7.59000E+09 8.06000E+09
 6.23000E+09 3.84000E+09 2.38000E+09 2.89000E+09 3.80000E+09 5.73000E+09
 5.66000E+09 2.66000E+09 1.34000E+09 1.85000E+09 2.27000E+09 2.93000E+09
 2.01000E+09 1.74000E+09 1.43000E+09 4.07000E+08 1.16000E+09 2.91000E+09
 0.00000E+00
                     1
                     0
