  2   5
 16
  0   0  0  1
-47   0
 2.00000E+01 1.49180E+01 1.34990E+01 1.22140E+01 1.10520E+01 1.00000E+01
 9.04840E+00 8.18730E+00 7.40820E+00 6.70320E+00 6.06530E+00 5.48810E+00    
 4.96590E+00 4.49330E+00 4.06570E+00 3.67880E+00 3.32870E+00 3.01190E+00       
 2.72530E+00 2.46600E+00 1.82680E+00 1.35340E+00 1.00260E+00 7.42740E-01       
 5.50230E-01 4.076200-01 3.01970E-01 2.23710E-01 1.65730E-01 1.22770E-01       
 6.73790E-02 3.18280E-02 1.50340E-02 7.10170E-03 3.35460E-03 1.58460E-03        
 7.48520E-04 3.53580E-04 1.67020E-04 7.88930E-05 3.72670E-05 1.76030E-05
 8.31530E-06 3.92790E-06 1.85540E-06 8.76420E-07 4.13990E-07 1.00000E-08
 0.00000E+00 2.24720E+14 1.50630E+13 5.00900E+12 4.61680E+12 4.42600E+12
 4.02230E+12 4.09870E+12 4.47150E+12 4.83480E+12 5.05440E+12 5.33580E+12
 5.54280E+12 5.94470E+12 6.34330E+12 6.59780E+12 6.99040E+12 7.42650E+12  
 8.09290E+12 2.96440E+13 3.68820E+13 4.09540E+13 4.04030E+13 4.25570E+13 
 3.32310E+13 3.21790E+13 2.25990E+13 2.64490E+13 3.01220E+13 6.98310E+13
 6.37340E+13 7.19900E+13 4.66340E+13 5.39740E+13 4.21790E+13 2.98650E+13 
 2.21860E+13 1.50240E+13 8.84050E+12 4.41190E+12 1.19750E+12 5.36730E+11
 1.25480E+11 2.67350E+10 4.33710E+09 6.42160E+08 6.06500E+07
0
0 
