  12   5
  16
   0   0   1   1
  75   1
 1.00000E-11 1.33880E-06 1.79230E-06 2.39940E-06 3.21220E-06 4.30040E-06
 5.75710E-06 7.70740E-06 1.03180E-05 1.38140E-05 1.84930E-05 2.47580E-05
 3.31450E-05 4.43720E-05 5.94040E-05 7.95270E-05 1.06470E-04 1.42530E-04
 1.90820E-04 2.55460E-04 3.42000E-04 4.57850E-04 6.12950E-04 8.20580E-04
 1.09860E-03 1.47070E-03 1.96890E-03 2.63590E-03 3.52880E-03 4.72420E-03
 6.32460E-03 8.46700E-03 1.13350E-02 1.51750E-02 2.03160E-02 2.71980E-02
 3.64110E-02 4.87460E-02 6.52590E-02 8.73650E-02 1.16960E-01 1.56580E-01
 2.09620E-01 2.80640E-01 3.75700E-01 5.02970E-01 6.73360E-01 9.01460E-01
 1.20680E+00 1.61570E+00 2.16300E+00 2.89570E+00 3.87660E+00 5.18980E+00
 6.94790E+00 9.30150E+00 1.24520E+01 1.66710E+01 2.23180E+01 2.98790E+01
 4.00000E+01 4.10000E+01 4.20000E+01 4.30000E+01 4.40000E+01 4.50000E+01
 4.60000E+01 4.70000E+01 4.80000E+01 4.90000E+01 5.00000E+01 5.10000E+01
 5.20000E+01 5.30000E+01 5.40000E+01 5.50000E+01
 6.51020E-03 2.90230E-03 2.53810E-03 2.22380E-03 1.94690E-03 1.70550E-03
 1.49720E-03 1.31560E-03 1.15930E-03 1.01960E-03 8.97430E-04 7.93550E-04
 7.01110E-04 6.21310E-04 5.52370E-04 4.91880E-04 4.37620E-04 3.91580E-04
 3.54560E-04 3.15220E-04 2.91780E-04 2.64580E-04 2.39710E-04 2.24270E-04
 2.04670E-04 1.84680E-04 1.65630E-04 1.48600E-04 1.33180E-04 1.15560E-04
 9.83160E-05 8.12330E-05 6.85980E-05 5.89320E-05 5.18200E-05 4.86320E-05
 4.57730E-05 4.33360E-05 4.17790E-05 3.96670E-05 3.80190E-05 3.65540E-05
 3.68020E-05 3.87320E-05 4.13590E-05 4.65790E-05 5.35460E-05 6.27700E-05
 7.45280E-05 8.97240E-05 1.09170E-04 1.27910E-04 1.36030E-04 1.39930E-04
 1.31000E-04 1.24360E-04 1.16930E-04 1.04650E-04 9.53560E-05 9.82700E-02
 0.00000E+00 0.00000E+00 0.00000E+00 0.00000E+00 0.00000E+00 0.00000E+00
 0.00000E+00 0.00000E+00 0.00000E+00 0.00000E+00 0.00000E+00 0.00000E+00
 0.00000E+00 0.00000E+00 0.00000E+00
   0
   0
