 2   4
16
   0  0  1  1 
 566  0
  0.0000E+00  0.0000E+00  0.0000E+00  0.0000E+00  0.0000E+00  0.0000E+00
  0.0000E+00  0.0000E+00  0.0000E+00  0.0000E+00  0.0000E+00  0.0000E+00
  0.0000E+00  0.0000E+00  0.0000E+00  0.0000E+00  0.0000E+00  0.0000E+00
  0.0000E+00  0.0000E+00  0.0000E+00  0.0000E+00  0.0000E+00  0.0000E+00
  0.0000E+00  0.0000E+00  0.0000E+00  0.0000E+00  0.0000E+00  0.0000E+00
  0.0000E+00  0.0000E+00  0.0000E+00  0.0000E+00  0.0000E+00  0.0000E+00
  0.0000E+00  0.0000E+00  0.0000E+00  0.0000E+00  0.0000E+00  0.0000E+00
  0.0000E+00  0.0000E+00  0.0000E+00  0.0000E+00  0.0000E+00  0.0000E+00
  0.0000E+00  0.0000E+00  0.0000E+00  0.0000E+00  0.0000E+00  0.0000E+00
  0.0000E+00  0.0000E+00  0.0000E+00  0.0000E+00  0.0000E+00  0.0000E+00
  0.0000E+00  0.0000E+00  0.0000E+00  0.0000E+00  0.0000E+00  0.0000E+00
  0.0000E+00  0.0000E+00  0.0000E+00  0.0000E+00  0.0000E+00  0.0000E+00
  0.0000E+00  0.0000E+00  0.0000E+00  0.0000E+00  0.0000E+00  0.0000E+00
  0.0000E+00  0.0000E+00  0.0000E+00  0.0000E+00  0.0000E+00  0.0000E+00
  0.0000E+00  0.0000E+00  0.0000E+00  0.0000E+00  0.0000E+00  0.0000E+00
  0.0000E+00  0.0000E+00  0.0000E+00  0.0000E+00  0.0000E+00  0.0000E+00
  0.0000E+00  0.0000E+00  0.0000E+00  0.0000E+00  0.0000E+00  0.0000E+00
  0.0000E+00  0.0000E+00  0.0000E+00  0.0000E+00  0.0000E+00  0.0000E+00
  0.0000E+00  0.0000E+00  0.0000E+00  0.0000E+00  0.0000E+00  0.0000E+00
  0.0000E+00  0.0000E+00  0.0000E+00  0.0000E+00  0.0000E+00  0.0000E+00
  0.0000E+00  0.0000E+00  0.0000E+00  0.0000E+00  0.0000E+00  0.0000E+00
  0.0000E+00  0.0000E+00  0.0000E+00  0.0000E+00  0.0000E+00  0.0000E+00
  0.0000E+00  0.0000E+00  0.0000E+00  0.0000E+00  0.0000E+00  0.0000E+00
  0.0000E+00  0.0000E+00  0.0000E+00  0.0000E+00  0.0000E+00  0.0000E+00
  0.0000E+00  0.0000E+00  0.0000E+00  0.0000E+00  0.0000E+00  0.0000E+00
  0.0000E+00  0.0000E+00  0.0000E+00  0.0000E+00  0.0000E+00  0.0000E+00
  0.0000E+00  0.0000E+00  0.0000E+00  0.0000E+00  0.0000E+00  0.0000E+00
  0.0000E+00  0.0000E+00  0.0000E+00  0.0000E+00  0.0000E+00  0.0000E+00
  0.0000E+00  0.0000E+00  4.8545E+07  1.6291E+08  0.0000E+00  0.0000E+00
  0.0000E+00  0.0000E+00  0.0000E+00  0.0000E+00  0.0000E+00  0.0000E+00
  0.0000E+00  0.0000E+00  0.0000E+00  0.0000E+00  0.0000E+00  0.0000E+00
  0.0000E+00  1.1675E+08  2.5230E+07  0.0000E+00  5.9846E+07  8.2097E+07
  6.2255E+07  0.0000E+00  1.2336E+08  2.4676E+08  2.7652E+08  3.7474E+08
  3.0508E+08  7.8155E+08  1.0752E+09  5.6762E+08  1.5649E+09  1.2272E+09
  1.1105E+09  8.8664E+08  6.2673E+08  2.3585E+09  1.7096E+09  2.5704E+09
  2.9646E+09  2.7377E+09  2.2208E+09  2.0506E+09  4.6374E+09  3.8004E+09
  7.1727E+09  7.1051E+09  8.3611E+09  7.2448E+09  8.0846E+09  9.7171E+09
  1.1389E+10  1.5281E+10  1.6637E+10  1.9552E+10  2.2153E+10  2.5265E+10
  2.4319E+10  3.1777E+10  3.2837E+10  3.8696E+10  4.0769E+10  4.9083E+10
  5.4978E+10  5.7941E+10  5.9046E+10  7.0654E+10  6.7330E+10  8.2457E+10
  8.7513E+10  9.7378E+10  1.0692E+11  1.0912E+11  1.1964E+11  1.2767E+11
  1.4062E+11  1.6227E+11  1.7838E+11  1.9164E+11  2.0938E+11  2.1938E+11
  2.4398E+11  2.5494E+11  2.6459E+11  2.8570E+11  2.9312E+11  3.2583E+11
  3.5349E+11  3.5926E+11  3.9619E+11  4.4340E+11  4.7032E+11  4.7131E+11
  4.9302E+11  5.2399E+11  5.8589E+11  5.9883E+11  6.0622E+11  6.6151E+11
  7.0230E+11  7.4248E+11  7.6481E+11  8.0542E+11  8.4225E+11  8.8718E+11
  9.5768E+11  9.4874E+11  9.7346E+11  1.0229E+12  1.0818E+12  1.1435E+12
  1.1884E+12  1.2169E+12  1.2540E+12  1.2987E+12  1.3710E+12  1.3971E+12
  1.4401E+12  1.4901E+12  1.5195E+12  1.6047E+12  1.6330E+12  1.6794E+12
  1.7271E+12  1.8155E+12  1.8568E+12  1.8681E+12  1.9338E+12  1.9409E+12
  2.0088E+12  2.0638E+12  2.1287E+12  2.1630E+12  2.2503E+12  2.2484E+12
  2.2244E+12  2.3206E+12  2.4447E+12  2.4353E+12  2.4521E+12  2.5232E+12
  2.5752E+12  2.5574E+12  2.6536E+12  2.6842E+12  2.7525E+12  2.7359E+12
  2.7951E+12  2.8230E+12  2.8359E+12  2.9272E+12  2.9703E+12  2.9577E+12
  3.0106E+12  2.9912E+12  3.0843E+12  3.1219E+12  3.0988E+12  3.1693E+12
  3.2116E+12  3.2172E+12  3.2604E+12  3.2354E+12  3.2983E+12  3.2730E+12
  3.3377E+12  3.4183E+12  3.3714E+12  3.4048E+12  3.3722E+12  3.4187E+12
  3.4255E+12  3.4548E+12  3.4096E+12  3.4617E+12  3.4450E+12  3.4561E+12
  3.4402E+12  3.4311E+12  3.5021E+12  3.4321E+12  3.3426E+12  3.4152E+12
  3.5190E+12  3.5401E+12  3.5263E+12  3.5728E+12  3.6204E+12  3.5464E+12
  3.5194E+12  3.5452E+12  3.5467E+12  3.5538E+12  3.5563E+12  3.5903E+12
  3.6425E+12  3.5936E+12  3.6067E+12  3.5767E+12  3.5341E+12  3.5843E+12
  3.6234E+12  3.6064E+12  3.5687E+12  3.6369E+12  3.7121E+12  3.7429E+12
  3.7434E+12  3.4270E+12  3.3690E+12  3.3471E+12  3.3108E+12  3.3220E+12
  3.3832E+12  3.4544E+12  3.4967E+12  3.1269E+12  3.3976E+12  3.2119E+12
  3.2472E+12  3.4150E+12  3.6315E+12  3.3776E+12  2.7821E+12  2.5348E+12
  2.6182E+12  2.7994E+12  2.9428E+12  2.9806E+12  3.0148E+12  3.0678E+12
  3.1690E+12  3.0437E+12  2.8138E+12  2.7285E+12  2.9220E+12  3.1501E+12
  3.3203E+12  2.4913E+12  2.3983E+12  2.5300E+12  2.5816E+12  2.6500E+12
  2.6900E+12  2.7668E+12  2.8499E+12  2.9849E+12  2.7698E+12  3.0675E+12
  3.4203E+12  1.9195E+12  1.0046E+12  1.5449E+12  1.9104E+12  2.1323E+12
  2.2189E+12  2.2770E+12  2.2488E+12  2.2601E+12  2.2871E+12  2.0955E+12
  1.7565E+12  1.2073E+12  8.9959E+11  1.1974E+12  1.8071E+12  2.0246E+12
  2.1308E+12  2.1254E+12  1.9528E+12  2.0324E+12  2.3605E+12  1.6923E+12
  1.8172E+12  2.1123E+12  1.0119E+12  8.6338E+11  6.4956E+11  4.4177E+11
  5.1615E+11  6.8987E+11  9.0587E+11  1.1024E+12  1.1085E+12  1.2038E+12
  1.6624E+12  1.1318E+12  1.1804E+12  1.2397E+12  1.2490E+12  1.1097E+12
  1.2028E+12  1.1175E+12  8.6703E+11  8.6843E+11  7.9879E+11  7.1160E+11
  6.4930E+11  5.3627E+11  5.3600E+11  5.6573E+11  4.9639E+11  7.0484E+11
  8.6049E+11  7.4733E+11  8.0824E+11  8.9306E+11  9.1913E+11  8.2334E+11
  8.9079E+11  8.1708E+11  1.0769E+12  1.2491E+12  1.2188E+12  1.1725E+12
  1.3083E+12  1.3495E+12  1.2153E+12  1.2079E+12  1.4948E+12  1.5140E+12
  1.5312E+12  1.2741E+12  1.2118E+12  1.1832E+12  1.1983E+12  1.2539E+12
  1.2174E+12  1.2276E+12  1.2726E+12  1.2499E+12  1.2072E+12  1.2232E+12
  1.0020E+12  9.7923E+11  1.0903E+12  1.1142E+12  1.0818E+12  9.7088E+11
  9.3609E+11  9.7727E+11  1.0161E+12  9.8149E+11  8.3762E+11  8.0857E+11
  8.7497E+11  7.9014E+11  7.9728E+11  7.3196E+11  6.4697E+11  6.2095E+11
  6.2105E+11  6.4370E+11  6.0388E+11  5.9317E+11  5.6820E+11  5.3857E+11
  5.3460E+11  5.1242E+11  5.0424E+11  4.4961E+11  4.2004E+11  4.1568E+11
  4.3491E+11  4.1723E+11  4.0037E+11  3.6301E+11  3.6452E+11  3.7495E+11
  3.7699E+11  3.6310E+11  3.4852E+11  3.4112E+11  3.7606E+11  3.6193E+11
  3.7857E+11  3.9072E+11  4.0057E+11  4.4958E+11  4.6919E+11  5.4066E+11
  6.5268E+11  7.5589E+11  8.9787E+11  1.0780E+12  1.3886E+12  8.0465E+11
  0.0000E+00  0.0000E+00  0.0000E+00  0.0000E+00  0.0000E+00  0.0000E+00
  0.0000E+00  0.0000E+00
0
0
