   2  2
  16
 1   0  1  1
  5.E+06 2.E+05
-175   0
 0.00000E+00 0.00000E+00 0.00000E+00 0.00000E+00 0.00000E+00 0.00000E+00
 0.00000E+00 0.00000E+00 0.00000E+00 0.00000E+00 3.75283E+09 2.41546E+08
 3.84590E+08 3.92236E+08 2.94620E+08 2.25813E+08 2.60161E+08 2.06422E+08
 1.97115E+08 1.74955E+08 1.80717E+08 1.56673E+08 1.85038E+08 1.65204E+08
 1.38058E+08 1.52241E+08 1.69858E+08 1.62767E+08 1.60108E+08 2.08528E+08
 1.92572E+08 2.63707E+08 2.42100E+08 2.84870E+08 3.34619E+08 3.03152E+08
 3.66419E+08 4.11183E+08 4.53620E+08 5.78825E+08 5.55778E+08 7.95108E+08
 7.68073E+08 8.37434E+08 1.01416E+09 1.10435E+09 1.24540E+09 1.40274E+09
 1.52573E+09 1.92129E+09 1.71520E+09 2.55618E+09 2.94288E+09 2.34344E+09
 1.70966E+09 1.67864E+09 1.45149E+09 9.49233E+08 1.93126E+09 1.52241E+09
 1.39942E+09 2.67141E+09 3.42597E+09 5.52122E+08 1.50246E+09 2.73346E+09
 1.86478E+09 9.18873E+08 3.09689E+08 2.19940E+09 2.36228E+09 1.94345E+09
 1.77836E+09 1.26092E+09 9.95437E+08 1.20773E+09 4.24479E+08 4.38994E+08
 4.18052E+08 3.75394E+08 4.11737E+08 5.88021E+08 6.92728E+08 7.32506E+08
 7.39929E+08 5.01375E+08 3.44480E+08 5.17884E+08 3.94119E+08 1.75620E+08
 2.14068E+08 4.01321E+08 1.91686E+08 6.51621E+08 2.72460E+08 4.88633E+08
 9.10674E+08 1.69747E+08 1.67420E+08 1.69858E+08 1.73293E+08 1.76506E+08
 1.78168E+08 2.22489E+08 1.48030E+08 1.90689E+08 1.98666E+08 2.01769E+08
 2.08528E+08 1.29194E+08 4.13731E+07 8.63251E+07 8.55163E+07 8.90176E+07
 1.39166E+08 9.21532E+07 9.12003E+07 4.64256E+07 9.55770E+07 1.47809E+08
 4.76999E+07 1.53570E+08 4.96610E+07 1.02912E+08 1.02546E+08 1.60329E+08
 5.31402E+07 1.62656E+08 1.10081E+08 1.14125E+08 1.18446E+08 6.01761E+07
 1.81049E+08 6.15500E+07 1.25094E+08 1.26092E+08 1.92905E+08 2.04317E+08
 2.06755E+08 1.44263E+08 7.12562E+07 1.47144E+08 1.54567E+08 1.60662E+08
 1.60662E+08 2.50078E+08 2.64039E+08 1.78611E+08 2.81546E+08 1.90578E+08
 3.05479E+08 4.41764E+08 3.41710E+08 3.64203E+08 5.28853E+08 4.34783E+08
 4.47636E+08 6.86745E+08 5.92453E+08 6.21372E+08 7.30511E+08 5.44144E+08
 9.35383E+08 7.73835E+08 3.65865E+08 4.38883E+08 4.83093E+08 5.25640E+08
 5.70847E+08 6.32896E+08 6.90512E+08 3.68414E+08 9.56102E+09 0.00000E+00
 0.00000E+00
                     0
                     0
